(set-logic QF_BV)
(declare-fun _substvar_1393_ () (_ BitVec 31))
(declare-fun _substvar_2441_ () Bool)
(declare-fun _substvar_1749_ () (_ BitVec 31))
(declare-fun _substvar_2425_ () Bool)
(declare-fun _substvar_1576_ () (_ BitVec 31))
(declare-fun _substvar_1406_ () (_ BitVec 31))
(declare-fun _substvar_2439_ () Bool)
(declare-fun _substvar_1669_ () (_ BitVec 31))
(declare-fun _substvar_1731_ () (_ BitVec 31))
(declare-fun _substvar_2427_ () Bool)
(declare-fun _substvar_2436_ () Bool)
(declare-fun _substvar_1403_ () (_ BitVec 31))
(declare-fun _substvar_1396_ () (_ BitVec 31))
(declare-fun _substvar_1897_ () (_ BitVec 31))
(declare-fun _substvar_1723_ () (_ BitVec 31))
(declare-fun _substvar_1679_ () (_ BitVec 31))
(declare-fun _substvar_1692_ () (_ BitVec 31))
(declare-fun _substvar_1724_ () (_ BitVec 31))
(declare-fun _substvar_1762_ () (_ BitVec 31))
(declare-fun _substvar_2422_ () Bool)
(declare-fun _substvar_1761_ () (_ BitVec 31))
(declare-fun _substvar_1410_ () (_ BitVec 31))
(declare-fun _substvar_2408_ () Bool)
(declare-fun reset_2 () Bool)
(assert (and (ite _substvar_2408_ (= _substvar_1396_ (_ bv0 31)) (= _substvar_1396_ (concat ((_ extract 29 0) _substvar_1724_) (bvxor ((_ extract 30 30) _substvar_1724_) (_ bv0 1))))) (ite _substvar_2439_ (= _substvar_1406_ (_ bv0 31)) (= _substvar_1406_ (concat ((_ extract 29 0) _substvar_1396_) (bvxor ((_ extract 30 30) _substvar_1396_) (_ bv0 1))))) (ite reset_2 true (= (_ bv0 31) (concat ((_ extract 29 0) _substvar_1406_) (bvxor ((_ extract 30 30) _substvar_1406_) (_ bv0 1))))) true true true true true true true true true true true true true true true true true true true true true true true true true true true true true true true true true true true true true true true true true true true true true true true true true true true true true true true true true true true true true true true true true true true true true true true true true true true true true true true true true true true true true true true true true true true (= _substvar_1669_ _substvar_1761_) (ite _substvar_2425_ false (= _substvar_1749_ (concat ((_ extract 29 0) _substvar_1669_) (_ bv0 1)))) true (ite _substvar_2439_ false true) true true true true true true true true true true true true true true true true true true true true true true true true true true true true true true true true true true true true true true true true true true true true true true true true true true true true true true true true true true true true true true true true true true true true true true true true true true true true true true true true true true true true true true true true (= _substvar_1897_ (_ bv0 31)) (ite _substvar_2422_ (= _substvar_1723_ (_ bv0 31)) (= _substvar_1723_ (concat (_ bv0 30) (bvxor (_ bv0 1) ((_ extract 27 27) _substvar_1897_))))) (ite _substvar_2427_ (= _substvar_1393_ (_ bv0 31)) (= _substvar_1393_ (concat ((_ extract 29 0) _substvar_1723_) (bvxor ((_ extract 30 30) _substvar_1723_) ((_ extract 27 27) _substvar_1723_))))) (ite _substvar_2436_ (= _substvar_1403_ (_ bv0 31)) (= _substvar_1403_ (concat ((_ extract 29 0) _substvar_1393_) (bvxor (_ bv0 1) ((_ extract 27 27) _substvar_1393_))))) (ite _substvar_2441_ (= _substvar_1731_ (_ bv0 31)) (= _substvar_1731_ (concat (_ bv0 30) (bvxor (_ bv0 1) ((_ extract 27 27) _substvar_1403_))))) (= _substvar_1692_ (concat (_ bv0 30) (bvxor ((_ extract 30 30) _substvar_1731_) ((_ extract 27 27) _substvar_1731_)))) true true true true true true true true true true true true true true true true true true true true true true true true true true true true true true true true true true true true true true true true true true true true true true true true true true true true true true true true true true true true true true true true true true true true true true true true true true true true true true true true true true true true true true true true true true true true true true true true true true true true true true true true true true true true true true true true true true true true true true true true true true true true true true true true true true true true true true true true true true true true true true true true true true true true true true true true true true true true true true true true true true true true true true true true true true true true true true true true true true true true true true true true true true true true true (ite _substvar_2436_ (= _substvar_1410_ (_ bv0 31)) true) (ite _substvar_2441_ (= _substvar_1679_ (_ bv0 31)) (= _substvar_1679_ (concat ((_ extract 29 0) _substvar_1410_) (_ bv0 1)))) (ite _substvar_2425_ (= _substvar_1762_ (_ bv0 31)) (= _substvar_1762_ (concat ((_ extract 29 0) _substvar_1679_) (bvxor ((_ extract 30 30) _substvar_1679_) ((_ extract 27 27) _substvar_1679_))))) (not (= _substvar_1724_ _substvar_1576_)) true true true true true (not (= _substvar_1724_ (_ bv0 31))) true true true (= (or false (= _substvar_1749_ (_ bv0 31)) false (= _substvar_1692_ (_ bv0 31)) false (= (_ bv0 31) _substvar_1762_)) (and (not _substvar_2408_) true (not reset_2) true true true true true true true true true true true true true true true true true true true true true true true true true true true true true true true true true true true true true true true true true true true true true true true true true true true true true true true true true true true true true true true true true true true true true true true true true true true true true true true true true true true true true true true true true true true true true))))
(check-sat)
(exit)
